 2  6  7  9  4  5  1  3  8 
 9  4  5  1  8  3  7  6  2 
 1  8  3  7  2  6  5  4  9 
 7  2  6  5  9  4  3  8  1 
 5  9  0  3  1  8  6  2  7 
 3  1  8  6  7  2  4  9  5 
 6  7  2  4  5  9  8  1  3 
 0  0  9  8  3  1  2  7  6 
 8  3  1  2  6  0  9  0  4